100
128
10
15
35
24
4
40
30
47
6
11
42
55
16
13
3
55
35
37
7
15
11
6
1
51
22
57
6
24
11
41
23
14
18
38
50
22
9
15
10
9
13
10
11
31
2
13
54
25
30
28
17
13
15
20
32
19
37
20
2
45
9
36
32
63
32
57
33
1
14
22
16
52
39
41
60
36
46
38
32
36
48
44
4
9
60
31
28
28
45
54
31
36
32
29
47
32
50
31
49
47